5 5
2 56 0 23 4 97 1 98 3 34
1 99 3 17 2 28 0 14 4 34
4 75 3 57 0 77 1 97 2 55
0 66 3 98 4 93 1 37 2 68
2 76 1 26 3 61 0 92 4 67
-1
0 3 5
0 3 5
0 1 2 4 5
0 1 2 4 5
0 1 2 5
-2
204 470
169 229
76 144 469 374
95 185 364 472
119 133 336

473 7
15 1 12 8 23
5 21 3 18 13
0 20 7 19 14
16 11 6 22 4
10 2 17 9 24
